(set-info :source |printed by MathSAT|)
(declare-fun call_mesi.ite7 () Int)
(declare-fun call_mesi.ite.next () Int)
(declare-fun call_mesi.shared_me.next () Int)
(declare-fun call_mesi.ite19 () Int)
(declare-fun call_mesi.garde_me1.next () Bool)
(declare-fun call_excludes4.excludes.next () Bool)
(declare-fun call_Sofar.flby () Bool)
(declare-fun call_mesi.ite27.next () Int)
(declare-fun exclusive_me () Int)
(declare-fun call_mesi.ite24.next () Int)
(declare-fun call_mesi.flby4 () Int)
(declare-fun call_mesi.ite32 () Int)
(declare-fun env () Bool)
(declare-fun call_mesi.ite16 () Int)
(declare-fun call_mesi.ite25.next () Int)
(declare-fun call_mesi.ite21 () Int)
(declare-fun shared_me () Int)
(declare-fun call_mesi.ite7.next () Int)
(declare-fun call_mesi.ite6.next () Int)
(declare-fun call_mesi.flby2 () Int)
(declare-fun call_mesi.ite26 () Int)
(declare-fun call_mesi.exclusive_me () Int)
(declare-fun call_mesi.ite13.next () Int)
(declare-fun call_mesi.ite10.next () Int)
(declare-fun call_mesi.ite27 () Int)
(declare-fun call_mesi.ite14 () Int)
(declare-fun call_Sofar.Sofar.next () Bool)
(declare-fun call_mesi.ite6 () Int)
(declare-fun call_mesi.ite20.next () Int)
(declare-fun env.next () Bool)
(declare-fun call_mesi.ite23 () Int)
(declare-fun call_mesi.ite3.next () Int)
(declare-fun call_mesi.ite26.next () Int)
(declare-fun call_mesi.ite16.next () Int)
(declare-fun call_mesi.ite18 () Int)
(declare-fun call_mesi.ite2.next () Int)
(declare-fun call_mesi.flby.next () Int)
(declare-fun call_mesi.flby3 () Int)
(declare-fun call_mesi.ite29 () Int)
(declare-fun param_etat_me1 () Bool)
(declare-fun call_mesi.flby4.next () Int)
(declare-fun param_etat_me2 () Bool)
(declare-fun call_mesi.ite18.next () Int)
(declare-fun call_mesi.ite22.next () Int)
(declare-fun call_Sofar.flby.next () Bool)
(declare-fun call_mesi.ite5.next () Int)
(declare-fun call_mesi.ite10 () Int)
(declare-fun call_mesi.ite4.next () Int)
(declare-fun call_Sofar.Sofar () Bool)
(declare-fun shared_me.next () Int)
(declare-fun call_mesi.ite21.next () Int)
(declare-fun exclusive_me.next () Int)
(declare-fun param_etat_me1.next () Bool)
(declare-fun _OK_.next () Bool)
(declare-fun call_mesi.ite5 () Int)
(declare-fun invalid_me () Int)
(declare-fun param_etat_me3.next () Bool)
(declare-fun call_mesi.ite22 () Int)
(declare-fun call_mesi.ite8.next () Int)
(declare-fun call_mesi.ite () Int)
(declare-fun call_mesi.ite17 () Int)
(declare-fun call_mesi.ite15 () Int)
(declare-fun call_mesi.ite30.next () Int)
(declare-fun call_mesi.ite29.next () Int)
(declare-fun call_mesi.ite19.next () Int)
(declare-fun call_mesi.ite11 () Int)
(declare-fun param_etat_me4.next () Bool)
(declare-fun call_mesi.flby3.next () Int)
(declare-fun param_etat_me2.next () Bool)
(declare-fun call_mesi.ite31 () Int)
(declare-fun modified_me () Int)
(declare-fun call_mesi.flby () Int)
(declare-fun call_mesi.garde_me2.next () Bool)
(declare-fun call_mesi.ite31.next () Int)
(declare-fun call_mesi.ite15.next () Int)
(declare-fun call_mesi.ite13 () Int)
(declare-fun call_mesi.ite12.next () Int)
(declare-fun call_mesi.ite8 () Int)
(declare-fun invalid_me.next () Int)
(declare-fun call_mesi.ite30 () Int)
(declare-fun call_mesi.garde_me3.next () Bool)
(declare-fun call_mesi.ite14.next () Int)
(declare-fun call_mesi.shared_me () Int)
(declare-fun call_mesi.ite3 () Int)
(declare-fun call_mesi.exclusive_me.next () Int)
(declare-fun call_mesi.ite2 () Int)
(declare-fun call_mesi.garde_me4.next () Bool)
(declare-fun param_etat_me4 () Bool)
(declare-fun call_mesi.ite23.next () Int)
(declare-fun call_mesi.ite28.next () Int)
(declare-fun call_mesi.ite24 () Int)
(declare-fun call_mesi.ite32.next () Int)
(declare-fun call_excludes4.excludes () Bool)
(declare-fun call_mesi.ite25 () Int)
(declare-fun call_mesi.ite9.next () Int)
(declare-fun call_mesi.ite9 () Int)
(declare-fun modified_me.next () Int)
(declare-fun _OK_ () Bool)
(declare-fun call_mesi.invalid_me.next () Int)
(declare-fun call_mesi.modified_me () Int)
(declare-fun param_etat_me3 () Bool)
(declare-fun call_mesi.modified_me.next () Int)
(declare-fun call_mesi.flby2.next () Int)
(declare-fun call_mesi.invalid_me () Int)
(declare-fun call_mesi.ite11.next () Int)
(declare-fun call_mesi.ite17.next () Int)
(define-fun .def_1157 () Bool (= call_Sofar.flby.next call_Sofar.Sofar.next))
(define-fun .def_1152 () Bool (and param_etat_me4.next param_etat_me3.next))
(define-fun .def_1147 () Bool (and param_etat_me1.next param_etat_me2.next))
(define-fun .def_1146 () Bool (and param_etat_me3.next param_etat_me1.next))
(define-fun .def_1148 () Bool (or .def_1146 .def_1147))
(define-fun .def_1145 () Bool (and param_etat_me4.next param_etat_me1.next))
(define-fun .def_1149 () Bool (or .def_1145 .def_1148))
(define-fun .def_1144 () Bool (and param_etat_me3.next param_etat_me2.next))
(define-fun .def_1150 () Bool (or .def_1144 .def_1149))
(define-fun .def_1143 () Bool (and param_etat_me4.next param_etat_me2.next))
(define-fun .def_1151 () Bool (or .def_1143 .def_1150))
(define-fun .def_1153 () Bool (or .def_1151 .def_1152))
(define-fun .def_1154 () Bool (not .def_1153))
(define-fun .def_1155 () Bool (= call_excludes4.excludes.next .def_1154))
(define-fun .def_1141 () Bool (= call_mesi.flby4.next call_mesi.invalid_me.next))
(define-fun .def_1139 () Bool (= call_mesi.flby3.next call_mesi.shared_me.next))
(define-fun .def_1137 () Bool (= call_mesi.flby2.next call_mesi.exclusive_me.next))
(define-fun .def_1135 () Bool (= call_mesi.flby.next call_mesi.modified_me.next))
(define-fun .def_1131 () Bool (= call_mesi.ite30.next call_mesi.ite31.next))
(define-fun .def_1132 () Bool (or param_etat_me2.next .def_1131))
(define-fun .def_1128 () Bool (= call_mesi.ite26.next call_mesi.ite31.next))
(define-fun .def_1113 () Bool (not param_etat_me2.next))
(define-fun .def_1129 () Bool (or .def_1113 .def_1128))
(define-fun .def_1125 () Bool (= call_mesi.ite22.next call_mesi.ite23.next))
(define-fun .def_1126 () Bool (or param_etat_me2.next .def_1125))
(define-fun .def_1122 () Bool (= call_mesi.ite18.next call_mesi.ite23.next))
(define-fun .def_1123 () Bool (or .def_1113 .def_1122))
(define-fun .def_1119 () Bool (= call_mesi.ite14.next call_mesi.ite15.next))
(define-fun .def_1120 () Bool (or param_etat_me2.next .def_1119))
(define-fun .def_1116 () Bool (= call_mesi.ite10.next call_mesi.ite15.next))
(define-fun .def_1117 () Bool (or .def_1113 .def_1116))
(define-fun .def_1112 () Bool (= call_mesi.ite2.next call_mesi.ite7.next))
(define-fun .def_1114 () Bool (or .def_1112 .def_1113))
(define-fun .def_1109 () Bool (= call_mesi.ite6.next call_mesi.ite7.next))
(define-fun .def_1111 () Bool (or .def_1109 param_etat_me2.next))
(define-fun .def_1115 () Bool (and .def_1111 .def_1114))
(define-fun .def_1118 () Bool (and .def_1115 .def_1117))
(define-fun .def_1121 () Bool (and .def_1118 .def_1120))
(define-fun .def_1124 () Bool (and .def_1121 .def_1123))
(define-fun .def_1127 () Bool (and .def_1124 .def_1126))
(define-fun .def_1130 () Bool (and .def_1127 .def_1129))
(define-fun .def_1133 () Bool (and .def_1130 .def_1132))
(define-fun .def_1105 () Bool (= call_mesi.ite32.next call_mesi.ite31.next))
(define-fun .def_1106 () Bool (or param_etat_me1.next .def_1105))
(define-fun .def_1101 () Bool (= call_mesi.ite25.next call_mesi.ite32.next))
(define-fun .def_1084 () Bool (not param_etat_me1.next))
(define-fun .def_1102 () Bool (or .def_1084 .def_1101))
(define-fun .def_1098 () Bool (= call_mesi.ite24.next call_mesi.ite23.next))
(define-fun .def_1099 () Bool (or param_etat_me1.next .def_1098))
(define-fun .def_1094 () Bool (= call_mesi.ite17.next call_mesi.ite24.next))
(define-fun .def_1095 () Bool (or .def_1084 .def_1094))
(define-fun .def_1091 () Bool (= call_mesi.ite16.next call_mesi.ite15.next))
(define-fun .def_1092 () Bool (or param_etat_me1.next .def_1091))
(define-fun .def_1087 () Bool (= call_mesi.ite9.next call_mesi.ite16.next))
(define-fun .def_1088 () Bool (or .def_1084 .def_1087))
(define-fun .def_1083 () Bool (= call_mesi.ite.next call_mesi.ite8.next))
(define-fun .def_1085 () Bool (or .def_1083 .def_1084))
(define-fun .def_1080 () Bool (= call_mesi.ite8.next call_mesi.ite7.next))
(define-fun .def_1082 () Bool (or .def_1080 param_etat_me1.next))
(define-fun .def_1086 () Bool (and .def_1082 .def_1085))
(define-fun .def_1089 () Bool (and .def_1086 .def_1088))
(define-fun .def_1093 () Bool (and .def_1089 .def_1092))
(define-fun .def_1096 () Bool (and .def_1093 .def_1095))
(define-fun .def_1100 () Bool (and .def_1096 .def_1099))
(define-fun .def_1103 () Bool (and .def_1100 .def_1102))
(define-fun .def_1107 () Bool (and .def_1103 .def_1106))
(define-fun .def_1077 () Bool (= env.next call_Sofar.Sofar.next))
(define-fun .def_1074 () Bool (= invalid_me.next call_mesi.invalid_me.next))
(define-fun .def_1070 () Bool (= shared_me.next call_mesi.shared_me.next))
(define-fun .def_1067 () Bool (= exclusive_me.next call_mesi.exclusive_me.next))
(define-fun .def_1063 () Bool (= modified_me.next call_mesi.modified_me.next))
(define-fun .def_1058 () Bool (= call_mesi.ite29.next call_mesi.ite30.next))
(define-fun .def_1059 () Bool (or param_etat_me3.next .def_1058))
(define-fun .def_1055 () Bool (= call_mesi.ite27.next call_mesi.ite30.next))
(define-fun .def_1037 () Bool (not param_etat_me3.next))
(define-fun .def_1056 () Bool (or .def_1037 .def_1055))
(define-fun .def_1051 () Bool (= call_mesi.ite21.next call_mesi.ite22.next))
(define-fun .def_1052 () Bool (or param_etat_me3.next .def_1051))
(define-fun .def_1048 () Bool (= call_mesi.ite19.next call_mesi.ite22.next))
(define-fun .def_1049 () Bool (or .def_1037 .def_1048))
(define-fun .def_1044 () Bool (= call_mesi.ite13.next call_mesi.ite14.next))
(define-fun .def_1045 () Bool (or param_etat_me3.next .def_1044))
(define-fun .def_1041 () Bool (= call_mesi.ite11.next call_mesi.ite14.next))
(define-fun .def_1042 () Bool (or .def_1037 .def_1041))
(define-fun .def_1036 () Bool (= call_mesi.ite3.next call_mesi.ite6.next))
(define-fun .def_1038 () Bool (or .def_1036 .def_1037))
(define-fun .def_1033 () Bool (= call_mesi.ite5.next call_mesi.ite6.next))
(define-fun .def_1035 () Bool (or .def_1033 param_etat_me3.next))
(define-fun .def_1039 () Bool (and .def_1035 .def_1038))
(define-fun .def_1043 () Bool (and .def_1039 .def_1042))
(define-fun .def_1046 () Bool (and .def_1043 .def_1045))
(define-fun .def_1050 () Bool (and .def_1046 .def_1049))
(define-fun .def_1053 () Bool (and .def_1050 .def_1052))
(define-fun .def_1057 () Bool (and .def_1053 .def_1056))
(define-fun .def_1060 () Bool (and .def_1057 .def_1059))
(define-fun .def_1028 () Bool (<= shared_me.next 1))
(define-fun .def_1026 () Bool (<= modified_me.next 1))
(define-fun .def_1029 () Bool (or .def_1026 .def_1028))
(define-fun .def_1025 () Bool (not env.next))
(define-fun .def_1030 () Bool (or .def_1025 .def_1029))
(define-fun .def_1031 () Bool (= _OK_.next .def_1030))
(define-fun .def_1061 () Bool (and .def_1031 .def_1060))
(define-fun .def_1064 () Bool (and .def_1061 .def_1063))
(define-fun .def_1068 () Bool (and .def_1064 .def_1067))
(define-fun .def_1071 () Bool (and .def_1068 .def_1070))
(define-fun .def_1075 () Bool (and .def_1071 .def_1074))
(define-fun .def_1078 () Bool (and .def_1075 .def_1077))
(define-fun .def_1108 () Bool (and .def_1078 .def_1107))
(define-fun .def_1134 () Bool (and .def_1108 .def_1133))
(define-fun .def_1136 () Bool (and .def_1134 .def_1135))
(define-fun .def_1138 () Bool (and .def_1136 .def_1137))
(define-fun .def_1140 () Bool (and .def_1138 .def_1139))
(define-fun .def_1142 () Bool (and .def_1140 .def_1141))
(define-fun .def_1156 () Bool (and .def_1142 .def_1155))
(define-fun .def_1158 () Bool (and .def_1156 .def_1157))
(define-fun .def_807 () Bool (= call_Sofar.flby call_Sofar.Sofar))
(define-fun .def_802 () Bool (and param_etat_me4 param_etat_me3))
(define-fun .def_797 () Bool (and param_etat_me1 param_etat_me2))
(define-fun .def_796 () Bool (and param_etat_me3 param_etat_me1))
(define-fun .def_798 () Bool (or .def_796 .def_797))
(define-fun .def_795 () Bool (and param_etat_me4 param_etat_me1))
(define-fun .def_799 () Bool (or .def_795 .def_798))
(define-fun .def_794 () Bool (and param_etat_me3 param_etat_me2))
(define-fun .def_800 () Bool (or .def_794 .def_799))
(define-fun .def_793 () Bool (and param_etat_me4 param_etat_me2))
(define-fun .def_801 () Bool (or .def_793 .def_800))
(define-fun .def_803 () Bool (or .def_801 .def_802))
(define-fun .def_804 () Bool (not .def_803))
(define-fun .def_805 () Bool (= call_excludes4.excludes .def_804))
(define-fun .def_791 () Bool (= call_mesi.flby4 call_mesi.invalid_me))
(define-fun .def_789 () Bool (= call_mesi.flby3 call_mesi.shared_me))
(define-fun .def_787 () Bool (= call_mesi.flby2 call_mesi.exclusive_me))
(define-fun .def_785 () Bool (= call_mesi.flby call_mesi.modified_me))
(define-fun .def_781 () Bool (= call_mesi.ite30 call_mesi.ite31))
(define-fun .def_782 () Bool (or param_etat_me2 .def_781))
(define-fun .def_778 () Bool (= call_mesi.ite31 call_mesi.ite26))
(define-fun .def_760 () Bool (not param_etat_me2))
(define-fun .def_779 () Bool (or .def_760 .def_778))
(define-fun .def_774 () Bool (= call_mesi.ite22 call_mesi.ite23))
(define-fun .def_775 () Bool (or param_etat_me2 .def_774))
(define-fun .def_771 () Bool (= call_mesi.ite23 call_mesi.ite18))
(define-fun .def_772 () Bool (or .def_760 .def_771))
(define-fun .def_767 () Bool (= call_mesi.ite14 call_mesi.ite15))
(define-fun .def_768 () Bool (or param_etat_me2 .def_767))
(define-fun .def_764 () Bool (= call_mesi.ite15 call_mesi.ite10))
(define-fun .def_765 () Bool (or .def_760 .def_764))
(define-fun .def_759 () Bool (= call_mesi.ite7 call_mesi.ite2))
(define-fun .def_761 () Bool (or .def_759 .def_760))
(define-fun .def_755 () Bool (= call_mesi.ite6 call_mesi.ite7))
(define-fun .def_757 () Bool (or .def_755 param_etat_me2))
(define-fun .def_762 () Bool (and .def_757 .def_761))
(define-fun .def_766 () Bool (and .def_762 .def_765))
(define-fun .def_769 () Bool (and .def_766 .def_768))
(define-fun .def_773 () Bool (and .def_769 .def_772))
(define-fun .def_776 () Bool (and .def_773 .def_775))
(define-fun .def_780 () Bool (and .def_776 .def_779))
(define-fun .def_783 () Bool (and .def_780 .def_782))
(define-fun .def_751 () Bool (= call_mesi.ite32 call_mesi.ite31))
(define-fun .def_752 () Bool (or param_etat_me1 .def_751))
(define-fun .def_747 () Bool (= call_mesi.ite25 call_mesi.ite32))
(define-fun .def_725 () Bool (not param_etat_me1))
(define-fun .def_748 () Bool (or .def_725 .def_747))
(define-fun .def_742 () Bool (= call_mesi.ite24 call_mesi.ite23))
(define-fun .def_743 () Bool (or param_etat_me1 .def_742))
(define-fun .def_738 () Bool (= call_mesi.ite17 call_mesi.ite24))
(define-fun .def_739 () Bool (or .def_725 .def_738))
(define-fun .def_733 () Bool (= call_mesi.ite16 call_mesi.ite15))
(define-fun .def_734 () Bool (or param_etat_me1 .def_733))
(define-fun .def_729 () Bool (= call_mesi.ite9 call_mesi.ite16))
(define-fun .def_730 () Bool (or .def_725 .def_729))
(define-fun .def_724 () Bool (= call_mesi.ite call_mesi.ite8))
(define-fun .def_726 () Bool (or .def_724 .def_725))
(define-fun .def_721 () Bool (= call_mesi.ite8 call_mesi.ite7))
(define-fun .def_723 () Bool (or .def_721 param_etat_me1))
(define-fun .def_727 () Bool (and .def_723 .def_726))
(define-fun .def_731 () Bool (and .def_727 .def_730))
(define-fun .def_735 () Bool (and .def_731 .def_734))
(define-fun .def_740 () Bool (and .def_735 .def_739))
(define-fun .def_744 () Bool (and .def_740 .def_743))
(define-fun .def_749 () Bool (and .def_744 .def_748))
(define-fun .def_753 () Bool (and .def_749 .def_752))
(define-fun .def_717 () Bool (= env call_Sofar.Sofar))
(define-fun .def_714 () Bool (= invalid_me call_mesi.invalid_me))
(define-fun .def_710 () Bool (= shared_me call_mesi.shared_me))
(define-fun .def_707 () Bool (= exclusive_me call_mesi.exclusive_me))
(define-fun .def_703 () Bool (= modified_me call_mesi.modified_me))
(define-fun .def_698 () Bool (= call_mesi.ite29 call_mesi.ite30))
(define-fun .def_699 () Bool (or param_etat_me3 .def_698))
(define-fun .def_695 () Bool (= call_mesi.ite27 call_mesi.ite30))
(define-fun .def_676 () Bool (not param_etat_me3))
(define-fun .def_696 () Bool (or .def_676 .def_695))
(define-fun .def_690 () Bool (= call_mesi.ite21 call_mesi.ite22))
(define-fun .def_691 () Bool (or param_etat_me3 .def_690))
(define-fun .def_687 () Bool (= call_mesi.ite19 call_mesi.ite22))
(define-fun .def_688 () Bool (or .def_676 .def_687))
(define-fun .def_683 () Bool (= call_mesi.ite13 call_mesi.ite14))
(define-fun .def_684 () Bool (or param_etat_me3 .def_683))
(define-fun .def_680 () Bool (= call_mesi.ite11 call_mesi.ite14))
(define-fun .def_681 () Bool (or .def_676 .def_680))
(define-fun .def_675 () Bool (= call_mesi.ite3 call_mesi.ite6))
(define-fun .def_677 () Bool (or .def_675 .def_676))
(define-fun .def_672 () Bool (= call_mesi.ite5 call_mesi.ite6))
(define-fun .def_674 () Bool (or .def_672 param_etat_me3))
(define-fun .def_678 () Bool (and .def_674 .def_677))
(define-fun .def_682 () Bool (and .def_678 .def_681))
(define-fun .def_685 () Bool (and .def_682 .def_684))
(define-fun .def_689 () Bool (and .def_685 .def_688))
(define-fun .def_692 () Bool (and .def_689 .def_691))
(define-fun .def_697 () Bool (and .def_692 .def_696))
(define-fun .def_700 () Bool (and .def_697 .def_699))
(define-fun .def_667 () Bool (<= shared_me 1))
(define-fun .def_665 () Bool (<= modified_me 1))
(define-fun .def_668 () Bool (or .def_665 .def_667))
(define-fun .def_664 () Bool (not env))
(define-fun .def_669 () Bool (or .def_664 .def_668))
(define-fun .def_670 () Bool (= _OK_ .def_669))
(define-fun .def_701 () Bool (and .def_670 .def_700))
(define-fun .def_704 () Bool (and .def_701 .def_703))
(define-fun .def_708 () Bool (and .def_704 .def_707))
(define-fun .def_711 () Bool (and .def_708 .def_710))
(define-fun .def_715 () Bool (and .def_711 .def_714))
(define-fun .def_718 () Bool (and .def_715 .def_717))
(define-fun .def_754 () Bool (and .def_718 .def_753))
(define-fun .def_784 () Bool (and .def_754 .def_783))
(define-fun .def_786 () Bool (and .def_784 .def_785))
(define-fun .def_788 () Bool (and .def_786 .def_787))
(define-fun .def_790 () Bool (and .def_788 .def_789))
(define-fun .def_792 () Bool (and .def_790 .def_791))
(define-fun .def_806 () Bool (and .def_792 .def_805))
(define-fun .def_808 () Bool (and .def_806 .def_807))
(define-fun .def_1159 () Bool (and .def_808 .def_1158))
(define-fun .def_1016 () Bool (<= 0 modified_me.next))
(define-fun .def_1018 () Bool (and .def_1016 call_excludes4.excludes.next))
(define-fun .def_1019 () Bool (and call_Sofar.Sofar .def_1018))
(define-fun .def_1021 () Bool (= .def_1019 call_Sofar.flby.next))
(define-fun .def_1013 () Bool (= call_mesi.ite32.next call_mesi.flby4.next))
(define-fun .def_1009 () Bool (= call_mesi.ite24.next call_mesi.flby3.next))
(define-fun .def_1005 () Bool (= call_mesi.ite16.next call_mesi.flby2.next))
(define-fun .def_1001 () Bool (= call_mesi.ite8.next call_mesi.flby.next))
(define-fun .def_969 () Bool (<= 1 call_mesi.invalid_me))
(define-fun .def_996 () Bool (= call_mesi.garde_me4.next .def_969))
(define-fun .def_993 () Bool (= call_mesi.ite20.next 0))
(define-fun .def_872 () Bool (not call_mesi.garde_me4.next))
(define-fun .def_994 () Bool (or .def_872 .def_993))
(define-fun .def_990 () Bool (= call_mesi.ite4.next 0))
(define-fun .def_991 () Bool (or .def_872 .def_990))
(define-fun .def_988 () Bool (= call_mesi.ite12.next 1))
(define-fun .def_989 () Bool (or .def_872 .def_988))
(define-fun .def_992 () Bool (and .def_989 .def_991))
(define-fun .def_995 () Bool (and .def_992 .def_994))
(define-fun .def_997 () Bool (and .def_995 .def_996))
(define-fun .def_984 () Bool (<= 1 call_mesi.shared_me))
(define-fun .def_985 () Bool (= call_mesi.garde_me3.next .def_984))
(define-fun .def_981 () Bool (= call_mesi.ite19.next 0))
(define-fun .def_858 () Bool (not call_mesi.garde_me3.next))
(define-fun .def_982 () Bool (or .def_858 .def_981))
(define-fun .def_978 () Bool (= call_mesi.ite3.next 0))
(define-fun .def_979 () Bool (or .def_858 .def_978))
(define-fun .def_976 () Bool (= call_mesi.ite11.next 1))
(define-fun .def_977 () Bool (or .def_858 .def_976))
(define-fun .def_980 () Bool (and .def_977 .def_979))
(define-fun .def_983 () Bool (and .def_980 .def_982))
(define-fun .def_986 () Bool (and .def_983 .def_985))
(define-fun .def_973 () Bool (<= 1 call_mesi.exclusive_me))
(define-fun .def_974 () Bool (= call_mesi.garde_me2.next .def_973))
(define-fun .def_970 () Bool (= call_mesi.garde_me1.next .def_969))
(define-fun .def_966 () Bool (= call_mesi.ite.next 0))
(define-fun .def_844 () Bool (not call_mesi.garde_me1.next))
(define-fun .def_967 () Bool (or .def_844 .def_966))
(define-fun .def_964 () Bool (= call_mesi.ite9.next 0))
(define-fun .def_965 () Bool (or .def_844 .def_964))
(define-fun .def_968 () Bool (and .def_965 .def_967))
(define-fun .def_971 () Bool (and .def_968 .def_970))
(define-fun .def_960 () Bool (= call_mesi.invalid_me call_mesi.ite28.next))
(define-fun .def_961 () Bool (or call_mesi.garde_me4.next .def_960))
(define-fun .def_957 () Bool (= call_mesi.invalid_me call_mesi.ite27.next))
(define-fun .def_958 () Bool (or call_mesi.garde_me3.next .def_957))
(define-fun .def_952 () Bool (= call_mesi.invalid_me call_mesi.ite26.next))
(define-fun .def_955 () Bool (or call_mesi.garde_me2.next .def_952))
(define-fun .def_815 () Bool (not call_mesi.garde_me2.next))
(define-fun .def_953 () Bool (or .def_815 .def_952))
(define-fun .def_946 () Int (* (- 1) call_mesi.ite25.next))
(define-fun .def_947 () Int (+ call_mesi.invalid_me .def_946))
(define-fun .def_948 () Bool (= .def_947 1))
(define-fun .def_949 () Bool (or .def_844 .def_948))
(define-fun .def_944 () Bool (= call_mesi.invalid_me call_mesi.ite25.next))
(define-fun .def_945 () Bool (or call_mesi.garde_me1.next .def_944))
(define-fun .def_950 () Bool (and .def_945 .def_949))
(define-fun .def_954 () Bool (and .def_950 .def_953))
(define-fun .def_956 () Bool (and .def_954 .def_955))
(define-fun .def_959 () Bool (and .def_956 .def_958))
(define-fun .def_962 () Bool (and .def_959 .def_961))
(define-fun .def_939 () Bool (= call_mesi.shared_me call_mesi.ite20.next))
(define-fun .def_940 () Bool (or call_mesi.garde_me4.next .def_939))
(define-fun .def_936 () Bool (= call_mesi.shared_me call_mesi.ite19.next))
(define-fun .def_937 () Bool (or call_mesi.garde_me3.next .def_936))
(define-fun .def_928 () Bool (= call_mesi.shared_me call_mesi.ite18.next))
(define-fun .def_933 () Bool (or call_mesi.garde_me2.next .def_928))
(define-fun .def_930 () Bool (= call_mesi.shared_me call_mesi.ite17.next))
(define-fun .def_931 () Bool (or call_mesi.garde_me1.next .def_930))
(define-fun .def_929 () Bool (or .def_815 .def_928))
(define-fun .def_932 () Bool (and .def_929 .def_931))
(define-fun .def_934 () Bool (and .def_932 .def_933))
(define-fun .def_938 () Bool (and .def_934 .def_937))
(define-fun .def_941 () Bool (and .def_938 .def_940))
(define-fun .def_923 () Bool (= call_mesi.exclusive_me call_mesi.ite12.next))
(define-fun .def_924 () Bool (or call_mesi.garde_me4.next .def_923))
(define-fun .def_920 () Bool (= call_mesi.exclusive_me call_mesi.ite11.next))
(define-fun .def_921 () Bool (or call_mesi.garde_me3.next .def_920))
(define-fun .def_916 () Bool (= call_mesi.exclusive_me call_mesi.ite10.next))
(define-fun .def_917 () Bool (or call_mesi.garde_me2.next .def_916))
(define-fun .def_913 () Bool (= call_mesi.exclusive_me call_mesi.ite9.next))
(define-fun .def_914 () Bool (or call_mesi.garde_me1.next .def_913))
(define-fun .def_908 () Int (* (- 1) call_mesi.ite10.next))
(define-fun .def_909 () Int (+ call_mesi.exclusive_me .def_908))
(define-fun .def_910 () Bool (= .def_909 1))
(define-fun .def_911 () Bool (or .def_815 .def_910))
(define-fun .def_915 () Bool (and .def_911 .def_914))
(define-fun .def_918 () Bool (and .def_915 .def_917))
(define-fun .def_922 () Bool (and .def_918 .def_921))
(define-fun .def_925 () Bool (and .def_922 .def_924))
(define-fun .def_903 () Bool (= call_mesi.invalid_me call_mesi.ite29.next))
(define-fun .def_904 () Bool (or param_etat_me4.next .def_903))
(define-fun .def_900 () Bool (= call_mesi.ite28.next call_mesi.ite29.next))
(define-fun .def_880 () Bool (not param_etat_me4.next))
(define-fun .def_901 () Bool (or .def_880 .def_900))
(define-fun .def_896 () Bool (= call_mesi.shared_me call_mesi.ite21.next))
(define-fun .def_897 () Bool (or param_etat_me4.next .def_896))
(define-fun .def_893 () Bool (= call_mesi.ite20.next call_mesi.ite21.next))
(define-fun .def_894 () Bool (or .def_880 .def_893))
(define-fun .def_888 () Bool (= call_mesi.exclusive_me call_mesi.ite13.next))
(define-fun .def_889 () Bool (or param_etat_me4.next .def_888))
(define-fun .def_885 () Bool (= call_mesi.ite12.next call_mesi.ite13.next))
(define-fun .def_886 () Bool (or .def_880 .def_885))
(define-fun .def_879 () Bool (= call_mesi.ite4.next call_mesi.ite5.next))
(define-fun .def_881 () Bool (or .def_879 .def_880))
(define-fun .def_876 () Bool (= call_mesi.modified_me call_mesi.ite5.next))
(define-fun .def_878 () Bool (or .def_876 param_etat_me4.next))
(define-fun .def_882 () Bool (and .def_878 .def_881))
(define-fun .def_887 () Bool (and .def_882 .def_886))
(define-fun .def_890 () Bool (and .def_887 .def_889))
(define-fun .def_895 () Bool (and .def_890 .def_894))
(define-fun .def_898 () Bool (and .def_895 .def_897))
(define-fun .def_902 () Bool (and .def_898 .def_901))
(define-fun .def_905 () Bool (and .def_902 .def_904))
(define-fun .def_862 () Int (* (- 1) call_mesi.ite28.next))
(define-fun .def_867 () Int (+ call_mesi.invalid_me .def_862))
(define-fun .def_868 () Int (+ call_mesi.shared_me .def_867))
(define-fun .def_869 () Int (+ call_mesi.exclusive_me .def_868))
(define-fun .def_870 () Int (+ call_mesi.modified_me .def_869))
(define-fun .def_871 () Bool (= .def_870 1))
(define-fun .def_873 () Bool (or .def_871 .def_872))
(define-fun .def_848 () Int (* (- 1) call_mesi.ite27.next))
(define-fun .def_853 () Int (+ call_mesi.invalid_me .def_848))
(define-fun .def_854 () Int (+ call_mesi.shared_me .def_853))
(define-fun .def_855 () Int (+ call_mesi.exclusive_me .def_854))
(define-fun .def_856 () Int (+ call_mesi.modified_me .def_855))
(define-fun .def_857 () Bool (= .def_856 1))
(define-fun .def_859 () Bool (or .def_857 .def_858))
(define-fun .def_836 () Int (* (- 1) call_mesi.ite17.next))
(define-fun .def_840 () Int (+ call_mesi.shared_me .def_836))
(define-fun .def_841 () Int (+ call_mesi.exclusive_me .def_840))
(define-fun .def_842 () Int (+ call_mesi.modified_me .def_841))
(define-fun .def_843 () Bool (= .def_842 1))
(define-fun .def_845 () Bool (or .def_843 .def_844))
(define-fun .def_831 () Bool (= call_mesi.modified_me call_mesi.ite4.next))
(define-fun .def_833 () Bool (or .def_831 call_mesi.garde_me4.next))
(define-fun .def_826 () Bool (= call_mesi.modified_me call_mesi.ite3.next))
(define-fun .def_828 () Bool (or .def_826 call_mesi.garde_me3.next))
(define-fun .def_822 () Bool (= call_mesi.modified_me call_mesi.ite2.next))
(define-fun .def_823 () Bool (or call_mesi.garde_me2.next .def_822))
(define-fun .def_818 () Bool (= call_mesi.modified_me call_mesi.ite.next))
(define-fun .def_820 () Bool (or .def_818 call_mesi.garde_me1.next))
(define-fun .def_811 () Int (* (- 1) call_mesi.ite2.next))
(define-fun .def_812 () Int (+ call_mesi.modified_me .def_811))
(define-fun .def_813 () Bool (= .def_812 1))
(define-fun .def_816 () Bool (or .def_813 .def_815))
(define-fun .def_821 () Bool (and .def_816 .def_820))
(define-fun .def_824 () Bool (and .def_821 .def_823))
(define-fun .def_829 () Bool (and .def_824 .def_828))
(define-fun .def_834 () Bool (and .def_829 .def_833))
(define-fun .def_846 () Bool (and .def_834 .def_845))
(define-fun .def_860 () Bool (and .def_846 .def_859))
(define-fun .def_874 () Bool (and .def_860 .def_873))
(define-fun .def_906 () Bool (and .def_874 .def_905))
(define-fun .def_926 () Bool (and .def_906 .def_925))
(define-fun .def_942 () Bool (and .def_926 .def_941))
(define-fun .def_963 () Bool (and .def_942 .def_962))
(define-fun .def_972 () Bool (and .def_963 .def_971))
(define-fun .def_975 () Bool (and .def_972 .def_974))
(define-fun .def_987 () Bool (and .def_975 .def_986))
(define-fun .def_998 () Bool (and .def_987 .def_997))
(define-fun .def_1002 () Bool (and .def_998 .def_1001))
(define-fun .def_1006 () Bool (and .def_1002 .def_1005))
(define-fun .def_1010 () Bool (and .def_1006 .def_1009))
(define-fun .def_1014 () Bool (and .def_1010 .def_1013))
(define-fun .def_1022 () Bool (and .def_1014 .def_1021))
(define-fun .def_1160 () Bool (and .def_1022 .def_1159))
(assert .def_1160)
